solution status: optimal solution found
objective value:                     148881.526499981
d11(0,0)                                            1 	(obj:0)
d11(1,1)                                            1 	(obj:0)
d11(1,2)                                            1 	(obj:0)
d11(1,3)                                            1 	(obj:0)
d11(2,4)                                            1 	(obj:0)
d11(2,10)                                           1 	(obj:0)
d11(3,13)                                           1 	(obj:0)
d11(3,14)                                           1 	(obj:0)
d11(3,16)                                           1 	(obj:0)
d11(3,19)                                           1 	(obj:0)
d11(3,20)                                           1 	(obj:0)
d11(3,22)                                           1 	(obj:0)
d11(3,23)                                           1 	(obj:0)
d11(3,25)                                           1 	(obj:0)
d11(3,26)                                           1 	(obj:0)
d11(3,28)                                           1 	(obj:0)
d11(3,29)                                           1 	(obj:0)
d11(3,31)                                           1 	(obj:0)
d11(3,32)                                           1 	(obj:0)
d11(3,34)                                           1 	(obj:0)
d11(3,35)                                           1 	(obj:0)
d11(3,37)                                           1 	(obj:0)
d12(2,5)                                            1 	(obj:0)
d12(2,6)                                            1 	(obj:0)
d12(2,8)                                            1 	(obj:0)
d12(2,9)                                            1 	(obj:0)
d12(2,11)                                           1 	(obj:0)
d12(2,12)                                           1 	(obj:0)
d12(3,15)                                           1 	(obj:0)
d12(3,18)                                           1 	(obj:0)
d12(3,21)                                           1 	(obj:0)
d12(3,24)                                           1 	(obj:0)
d12(3,27)                                           1 	(obj:0)
d12(3,30)                                           1 	(obj:0)
d12(3,33)                                           1 	(obj:0)
d12(3,36)                                           1 	(obj:0)
d12(3,39)                                           1 	(obj:0)
d21(2,4)                                            1 	(obj:0)
d21(3,13)                                           1 	(obj:0)
d21(3,14)                                           1 	(obj:0)
d21(3,15)                                           1 	(obj:0)
d21(3,16)                                           1 	(obj:0)
d21(3,17)                                           1 	(obj:0)
d21(3,19)                                           1 	(obj:0)
d21(3,22)                                           1 	(obj:0)
d21(3,25)                                           1 	(obj:0)
y2(3,24)                             960.592982999961 	(obj:0)
y2(3,27)                             960.592982999986 	(obj:0)
y2(3,30)                             960.592982999961 	(obj:0)
y2(3,33)                             960.592982999961 	(obj:0)
y2(3,36)                             960.592982999961 	(obj:0)
y2(3,39)                             960.592982999986 	(obj:0)
STE(1,1)                             2972.23399666668 	(obj:0)
STE(0,0)                                        11025 	(obj:0)
STE(1,2)                                         3969 	(obj:0)
STE(1,3)                             5186.45220333338 	(obj:0)
STE(2,4)                             2090.23399666668 	(obj:0)
STE(2,5)                             2848.89572881663 	(obj:0)
STE(2,6)                             3889.81736266667 	(obj:0)
STE(2,7)                                         3087 	(obj:0)
STE(2,8)                             3845.66173214995 	(obj:0)
STE(2,9)                             4886.58336599999 	(obj:0)
STE(2,10)                            4304.45220333338 	(obj:0)
STE(2,11)                            5063.11393548333 	(obj:0)
STE(2,12)                            6104.03556933337 	(obj:0)
STE(3,13)                            211.467993333394 	(obj:0)
STE(3,14)                            1208.23399666668 	(obj:0)
STE(3,15)                            2120.79733051667 	(obj:0)
STE(3,16)                            970.129725483374 	(obj:0)
STE(3,17)                            1966.89572881663 	(obj:0)
STE(3,18)                            2879.45906266662 	(obj:0)
STE(3,19)                            2011.05135933326 	(obj:0)
STE(3,20)                            3007.81736266667 	(obj:0)
STE(3,21)                            3920.38069651666 	(obj:0)
STE(3,22)                            1208.23399666671 	(obj:0)
STE(3,23)                                        2205 	(obj:0)
STE(3,24)                            3117.56333384996 	(obj:0)
STE(3,25)                            1966.89572881666 	(obj:0)
STE(3,26)                            2963.66173214995 	(obj:0)
STE(3,27)                            3876.22506599994 	(obj:0)
STE(3,28)                             3007.8173626667 	(obj:0)
STE(3,29)                            4004.58336599999 	(obj:0)
STE(3,30)                            4917.14669984995 	(obj:0)
STE(3,31)                            2425.68620000009 	(obj:0)
STE(3,32)                            3422.45220333338 	(obj:0)
STE(3,33)                            4335.01553718334 	(obj:0)
STE(3,34)                            3184.34793215004 	(obj:0)
STE(3,35)                            4181.11393548333 	(obj:0)
STE(3,36)                            5093.67726933329 	(obj:0)
STE(3,37)                            4225.26956600007 	(obj:0)
STE(3,38)                            5222.03556933337 	(obj:0)
STE(3,39)                            6134.59890318335 	(obj:0)
y1(3,25)                             897.089402999962 	(obj:0)
y1(3,28)                             897.089402999962 	(obj:0)
y1(3,31)                             897.089402999962 	(obj:0)
y1(3,34)                             897.089402999962 	(obj:0)
y1(3,37)                             897.089402999962 	(obj:0)
BG(3)                                3377.84999999953 	(obj:10)
AVE(1)                               3199.95851117552 	(obj:0)
WB(2)                                3265.15049132519 	(obj:0)
AVE(2)                               3265.15049132519 	(obj:0)
WB(3)                                3291.35535332476 	(obj:0)
AVE(3)                               3291.35535332476 	(obj:0)
WG(1)                                3199.95851117552 	(obj:10)
BG(1)                                5847.89148882445 	(obj:10)
BG(2)                                      2462.45265 	(obj:10)
y1(1,1)                              6453.68940299998 	(obj:0)
y1(1,2)                                        5556.6 	(obj:0)
y1(1,3)                              4460.89301699996 	(obj:0)
y1(3,13)                             897.089402999962 	(obj:0)
y1(3,16)                             897.089402999934 	(obj:0)
y1(3,19)                             897.089402999962 	(obj:0)
y1(3,22)                             897.089402999962 	(obj:0)
y2(2,5)                              798.591296999947 	(obj:0)
y2(2,6)                              1894.29827999999 	(obj:0)
y2(2,8)                              798.591296999947 	(obj:0)
y2(2,9)                              1894.29827999999 	(obj:0)
y2(2,11)                             798.591296999947 	(obj:0)
y2(2,12)                             1894.29827999999 	(obj:0)
y2(3,15)                             960.592982999986 	(obj:0)
y2(3,18)                             960.592982999986 	(obj:0)
y2(3,21)                             960.592982999986 	(obj:0)
